100 8
92 568
216 927
606 551
182 702
517 482
362 383
668 637
505 389
449 729
542 487
662 409
525 442
687 678
393 146
520 577
400 346
140 431
589 169
533 320
496 333
170 886
195 602
593 332
547 366
340 139
360 228
481 735
523 556
167 211
417 761
611 706
135 622
58 435
618 739
192 866
676 765
117 662
178 783
449 732
296 976
577 304
515 99
592 646
491 469
140 633
682 625
385 115
361 740
468 740
275 754
382 465
596 574
129 663
159 637
501 124
713 680
635 317
480 705
380 863
665 762
447 494
441 612
42 553
544 645
406 606
653 695
479 625
677 737
531 306
655 310
500 253
644 192
454 708
740 637
483 228
326 686
337 722
336 102
523 567
463 64
604 362
267 688
584 764
684 716
361 205
630 542
331 650
299 87
301 874
341 362
126 881
368 701
375 783
656 599
710 731
657 463
168 668
728 225
364 570
626 325
